p cnf 7230 16
1436 -1802 0
1150 1379 -1800 0
1148 1284 -1798 0
1143 1282 -1796 0
-1150 -1801 0
-1148 -1799 0
-1143 -1797 0
-1436 1803 0
1802 -1803 0
1800 1801 0
1798 1799 0
1796 1797 0
1436 -1805 0
-1379 -1801 0
-1284 -1799 0
-1282 -1797 0
